\* Problem: Unknown *\

Maximize
 obj: + xp_0_0 + xp_0_1 + xp_0_2 + xp_0_3 + xp_0_4 + xp_0_5 + xp_1_0
 + xp_1_1 + xp_2_0 + xp_2_1 + xp_2_2 + xp_2_3 + xp_2_4 + xp_3_0 + xp_3_1
 + xp_3_2 + xp_4_0 + xp_5_0 + xp_5_1 + xp_5_2 + xp_6_0 + xp_6_1 + xp_6_2
 + xp_6_3 + xp_7_0 + xp_7_1 + xp_8_0 + xp_8_1 + xp_9_0 + xp_9_1
 + xp_10_0 + xp_10_1 + xp_11_0 + xp_11_1 + xp_11_2 + xp_11_3 + xp_12_0
 + xp_13_0 + xp_13_1 + xp_14_0 + xp_14_1 + xp_14_2 + xp_15_0 + xp_16_0
 + xp_16_1 + xp_17_0 + xp_17_1 + xp_17_2 + xp_17_3 + xp_17_4 + xp_17_5
 + xp_17_6 + xp_17_7 + xp_18_0 + xp_18_1 + xp_18_2 + xp_18_3 + xp_19_0
 + xp_19_1 + xp_19_2 + xp_19_3 + xp_19_4 + xp_20_0 + xp_20_1 + xp_20_2
 + xp_20_3 + xp_21_0 + xp_21_1 + xp_21_2 + xp_21_3 + xp_21_4 + xp_22_0
 + xp_22_1 + xp_22_2 + xp_22_3 + xp_22_4 + xp_22_5 + xp_23_0 + xp_23_1
 + xp_23_2 + xp_23_3 + xp_23_4

Subject To
 r_1: 0 xp_0_0 <= 26.0136785539814
 r_2: + xp_22_4 + xp_18_2 + xp_9_1 + xp_5_2 + xp_2_3 <= 25.6936067551267
 r_3: + xp_23_4 + xp_21_1 + xp_18_3 + xp_17_3 + xp_6_3
 <= 26.2815479528884
 r_4: + xp_17_1 + xp_15_0 <= 26.6425279789335
 r_5: + xp_18_0 <= 25.3980019336126
 r_6: + xp_18_1 <= 26.2815479528884
 r_7: + xp_20_3 <= 26.0136785539814
 r_8: + xp_22_2 + xp_11_2 + xp_5_1 + xp_3_2 + xp_2_2 <= 25.6936067551267
 r_9: + xp_23_3 + xp_11_1 + xp_6_2 + xp_3_1 <= 26.2815479528884
 r_10: + xp_17_4 + xp_3_0 <= 26.6425279789335
 r_11: + xp_18_1 + xp_11_3 <= 25.3980019336126
 r_12: + xp_11_0 <= 26.2815479528884
 r_13: 0 xp_0_0 <= 27.941473259334
 r_14: + xp_21_2 + xp_14_0 + xp_0_5 + xp_0_2 <= 25.6936067551267
 r_15: + xp_21_0 + xp_19_3 <= 26.2815479528884
 r_16: + xp_22_1 + xp_21_4 + xp_19_4 + xp_14_2 + xp_0_4 + xp_0_3
 + xp_0_1 <= 26.3893805309735
 r_17: + xp_0_0 <= 25.3980019336126
 r_18: + xp_21_1 + xp_4_0 <= 26.0136785539814
 r_19: + xp_19_0 <= 26.0136785539814
 r_20: + xp_21_3 + xp_19_2 + xp_19_1 + xp_14_1 <= 27.941473259334
 r_21: + xp_20_1 <= 25.6936067551267
 r_22: + xp_21_2 + xp_7_1 <= 26.2815479528884
 r_23: + xp_22_4 + xp_22_3 + xp_22_2 + xp_3_2 <= 26.3893805309735
 r_24: + xp_23_2 + xp_17_5 + xp_6_1 + xp_0_5 <= 26.0949464012251
 r_25: 0 xp_0_0 <= 27.941473259334
 r_26: + xp_18_2 + xp_0_2 <= 25.3980019336126
 r_27: + xp_11_2 <= 25.6936067551267
 r_28: + xp_19_2 + xp_10_1 <= 25.6936067551267
 r_29: + xp_20_2 <= 26.2815479528884
 r_30: + xp_2_0 <= 26.2815479528884
 r_31: + xp_23_4 + xp_23_3 + xp_18_3 + xp_17_3 + xp_6_3 + xp_6_2
 + xp_3_1 + xp_2_4 <= 26.0949464012251
 r_32: + xp_2_1 <= 27.941473259334
 r_33: + xp_11_1 + xp_2_3 <= 26.2815479528884
 r_34: + xp_19_3 + xp_2_2 <= 26.2815479528884
 r_35: 0 xp_0_0 <= 26.3893805309735
 r_36: + xp_14_2 + xp_9_0 <= 26.3893805309735
 r_37: + xp_21_4 + xp_13_1 + xp_8_1 + xp_0_3 <= 26.0949464012251
 r_38: + xp_1_1 <= 28.3056478405316
 r_39: + xp_19_4 + xp_17_2 + xp_9_1 + xp_3_2 + xp_0_4
 <= 26.6425279789335
 r_40: + xp_0_1 <= 25.3980019336126
 r_41: + xp_12_0 + xp_2_4 <= 26.0949464012251
 r_42: + xp_21_4 <= 26.0949464012251
 r_43: + xp_16_0 <= 26.0949464012251
 r_44: + xp_23_4 + xp_23_3 + xp_23_2 + xp_23_1 + xp_16_1
 <= 28.3056478405316
 r_45: + xp_17_6 + xp_17_5 + xp_17_3 + xp_3_1 <= 26.6425279789335
 r_46: + xp_18_3 + xp_0_5 + xp_0_3 <= 25.3980019336126
 r_47: + xp_22_5 + xp_16_1 + xp_13_1 <= 28.3056478405316
 r_48: + xp_13_0 <= 28.3056478405316
 r_49: + xp_17_7 <= 26.6425279789335
 r_50: 0 xp_0_0 <= 25.3980019336126
 r_51: + xp_8_1 + xp_1_1 <= 26.6425279789335
 r_52: + xp_8_0 <= 26.6425279789335
 r_53: + xp_1_0 <= 26.6425279789335
 r_54: + xp_0_4 <= 25.3980019336126
 r_55: + xp_9_1 <= 26.6425279789335
 r_56: + xp_19_4 <= 26.6425279789335
 r_57: + xp_22_1 <= 25.3980019336126
 r_58: + xp_23_2 + xp_22_3 + xp_17_5 + xp_6_1 + xp_5_0
 <= 25.3980019336126
 r_59: + xp_22_0 + xp_17_2 <= 25.3980019336126
 r_60: + xp_23_1 + xp_17_6 + xp_6_0 <= 25.3980019336126
 r_61: + xp_23_0 + xp_22_5 + xp_17_7 <= 25.3980019336126
 r_62: + xp_17_0 <= 25.3980019336126
 r_63: + xp_23_4 + xp_22_4 + xp_17_3 + xp_17_1 + xp_11_3 + xp_6_3
 + xp_5_2 <= 25.3980019336126
 r_64: + xp_23_3 + xp_22_2 + xp_17_4 + xp_6_2 + xp_5_1
 <= 25.3980019336126
 r_65: + xp_20_1 + xp_19_2 + xp_14_1 + xp_10_1 + xp_7_1 + xp_2_1
 <= 27.941473259334
 r_66: + xp_21_3 + xp_20_2 + xp_7_0 <= 27.941473259334
 r_67: + xp_20_3 + xp_19_1 + xp_10_0 <= 27.941473259334
 r_68: + xp_20_0 <= 27.941473259334

Bounds
 0 <= xp_0_0 <= 27.5
 0 <= xp_0_1 <= 12.5
 0 <= xp_0_2 <= 7.5
 0 <= xp_0_3 <= 2.5
 0 <= xp_0_4 <= 5
 0 <= xp_0_5 <= 5
 0 <= xp_1_0 <= 19.5134875
 0 <= xp_1_1 <= 14.5134875
 0 <= xp_2_0 <= 23.388045
 0 <= xp_2_1 <= 2.796015
 0 <= xp_2_2 <= 2.796015
 0 <= xp_2_3 <= 3.68406
 0 <= xp_2_4 <= 0.888045
 0 <= xp_3_0 <= 25
 0 <= xp_3_1 <= 2.5
 0 <= xp_3_2 <= 2.5
 0 <= xp_4_0 <= 25.3224
 0 <= xp_5_0 <= 10.551
 0 <= xp_5_1 <= 8.4408
 0 <= xp_5_2 <= 6.3306
 0 <= xp_6_0 <= 15.19344
 0 <= xp_6_1 <= 1.89918
 0 <= xp_6_2 <= 3.79836
 0 <= xp_6_3 <= 1.89918
 0 <= xp_7_0 <= 18.200475
 0 <= xp_7_1 <= 3.640095
 0 <= xp_8_0 <= 17.989455
 0 <= xp_8_1 <= 1.635405
 0 <= xp_9_0 <= 16.68376875
 0 <= xp_9_1 <= 1.51670625
 0 <= xp_10_0 <= 15.1670625
 0 <= xp_10_1 <= 3.0334125
 0 <= xp_11_0 <= 26.70282
 0 <= xp_11_1 <= 14.60141
 0 <= xp_11_2 <= 9.402115
 0 <= xp_11_3 <= 6.902115
 0 <= xp_12_0 <= 17.09262
 0 <= xp_13_0 <= 12.46336875
 0 <= xp_13_1 <= 4.15445625
 0 <= xp_14_0 <= 7.91325
 0 <= xp_14_1 <= 6.594375
 0 <= xp_14_2 <= 1.318875
 0 <= xp_15_0 <= 15.668235
 0 <= xp_16_0 <= 13.78224375
 0 <= xp_16_1 <= 1.25293125
 0 <= xp_17_0 <= 27.332945
 0 <= xp_17_1 <= 2.332945
 0 <= xp_17_2 <= 1.1664725
 0 <= xp_17_3 <= 2.332945
 0 <= xp_17_4 <= 1.1664725
 0 <= xp_17_5 <= 2.5
 0 <= xp_17_6 <= 3.4994175
 0 <= xp_17_7 <= 3.6664725
 0 <= xp_18_0 <= 19.5574525
 0 <= xp_18_1 <= 13.0246225
 0 <= xp_18_2 <= 6.0082075
 0 <= xp_18_3 <= 3.5082075
 0 <= xp_19_0 <= 27.90592375
 0 <= xp_19_1 <= 5.40592375
 0 <= xp_19_2 <= 1.9372825
 0 <= xp_19_3 <= 3.874565
 0 <= xp_19_4 <= 2.5
 0 <= xp_20_0 <= 26.11079
 0 <= xp_20_1 <= 6.11079
 0 <= xp_20_2 <= 3.4026975
 0 <= xp_20_3 <= 5.2080925
 0 <= xp_21_0 <= 24.5457275
 0 <= xp_21_1 <= 1.5152425
 0 <= xp_21_2 <= 6.5152425
 0 <= xp_21_3 <= 4.0152425
 0 <= xp_21_4 <= 2.5
 0 <= xp_22_0 <= 26.87720125
 0 <= xp_22_1 <= 0.62573375
 0 <= xp_22_2 <= 1.2514675
 0 <= xp_22_3 <= 7.502935
 0 <= xp_22_4 <= 0.62573375
 0 <= xp_22_5 <= 0.62573375
 0 <= xp_23_0 <= 24.37720125
 0 <= xp_23_1 <= 6.2544025
 0 <= xp_23_2 <= 3.12573375
 0 <= xp_23_3 <= 1.2514675
 0 <= xp_23_4 <= 2.5

End
